NAME : X_18_seed_123_id_8
TYPE : CVRP
DIMENSION : 181
EDGE_WEIGHT_TYPE : EUC_2D
CAPACITY : 8
NODE_COORD_SECTION
1	766	479
2	217	698
3	502	211
4	296	304
5	95	41
6	806	446
7	707	86
8	148	780
9	572	276
10	346	217
11	240	696
12	847	491
13	563	221
14	455	83
15	332	727
16	278	336
17	114	759
18	635	307
19	709	100
20	578	237
21	118	36
22	693	49
23	659	89
24	116	127
25	183	682
26	237	606
27	426	115
28	306	768
29	202	672
30	490	168
31	361	408
32	799	424
33	198	877
34	642	142
35	137	195
36	456	159
37	835	559
38	156	643
39	704	37
40	825	163
41	573	213
42	626	243
43	369	294
44	471	188
45	359	272
46	424	235
47	201	616
48	267	498
49	708	84
50	245	667
51	97	297
52	762	468
53	213	744
54	240	368
55	828	443
56	495	224
57	752	130
58	282	672
59	296	217
60	68	65
61	494	176
62	116	51
63	740	115
64	228	683
65	805	522
66	741	444
67	68	127
68	246	284
69	551	145
70	830	467
71	436	323
72	617	157
73	566	142
74	839	456
75	510	266
76	78	32
77	714	451
78	436	201
79	858	424
80	316	272
81	261	693
82	111	12
83	278	285
84	175	342
85	217	700
86	715	105
87	192	252
88	697	477
89	616	73
90	247	697
91	27	69
92	812	481
93	83	38
94	226	322
95	727	403
96	265	259
97	748	453
98	87	2
99	978	433
100	239	689
101	332	315
102	78	91
103	204	716
104	680	69
105	164	843
106	591	172
107	580	199
108	102	1
109	798	456
110	221	758
111	68	71
112	321	46
113	485	177
114	496	248
115	837	40
116	220	30
117	758	523
118	325	307
119	100	43
120	272	368
121	252	678
122	165	671
123	282	784
124	242	294
125	303	377
126	839	411
127	309	241
128	314	303
129	216	621
130	12	25
131	181	703
132	299	253
133	670	93
134	292	321
135	286	247
136	730	31
137	4	33
138	344	254
139	687	5
140	458	45
141	791	496
142	618	284
143	979	517
144	299	222
145	243	823
146	210	211
147	26	62
148	416	338
149	802	401
150	878	63
151	84	25
152	204	757
153	317	293
154	506	232
155	776	152
156	892	493
157	151	667
158	149	46
159	784	569
160	677	8
161	213	286
162	237	361
163	820	376
164	835	508
165	350	264
166	600	128
167	514	352
168	693	447
169	116	44
170	102	185
171	897	412
172	512	303
173	793	509
174	761	115
175	704	87
176	102	60
177	846	365
178	563	204
179	99	697
180	197	540
181	935	474
DEMAND_SECTION
1	0
2	1
3	1
4	1
5	1
6	1
7	1
8	1
9	1
10	1
11	1
12	1
13	1
14	1
15	1
16	1
17	1
18	1
19	1
20	1
21	1
22	1
23	1
24	1
25	1
26	1
27	1
28	1
29	1
30	1
31	1
32	1
33	1
34	1
35	1
36	1
37	1
38	1
39	1
40	1
41	1
42	1
43	1
44	1
45	1
46	1
47	1
48	1
49	1
50	1
51	1
52	1
53	1
54	1
55	1
56	1
57	1
58	1
59	1
60	1
61	1
62	1
63	1
64	1
65	1
66	1
67	1
68	1
69	1
70	1
71	1
72	1
73	1
74	1
75	1
76	1
77	1
78	1
79	1
80	1
81	1
82	1
83	1
84	1
85	1
86	1
87	1
88	1
89	1
90	1
91	1
92	1
93	1
94	1
95	1
96	1
97	1
98	1
99	1
100	1
101	1
102	1
103	1
104	1
105	1
106	1
107	1
108	1
109	1
110	1
111	1
112	1
113	1
114	1
115	1
116	1
117	1
118	1
119	1
120	1
121	1
122	1
123	1
124	1
125	1
126	1
127	1
128	1
129	1
130	1
131	1
132	1
133	1
134	1
135	1
136	1
137	1
138	1
139	1
140	1
141	1
142	1
143	1
144	1
145	1
146	1
147	1
148	1
149	1
150	1
151	1
152	1
153	1
154	1
155	1
156	1
157	1
158	1
159	1
160	1
161	1
162	1
163	1
164	1
165	1
166	1
167	1
168	1
169	1
170	1
171	1
172	1
173	1
174	1
175	1
176	1
177	1
178	1
179	1
180	1
181	1
DEPOT_SECTION
1
-1
EOF
